p cnf 0 0
c 1 color par vertex et au plus 1
8 9 10 11 12 0
-9 -8 0
-10 -8 0
-11 -8 0
-12 -8 0
-10 -9 0
-11 -9 0
-12 -9 0
-11 -10 0
-12 -10 0
-12 -11 0
13 14 15 16 17 0
-14 -13 0
-15 -13 0
-16 -13 0
-17 -13 0
-15 -14 0
-16 -14 0
-17 -14 0
-16 -15 0
-17 -15 0
-17 -16 0
18 19 20 21 22 0
-19 -18 0
-20 -18 0
-21 -18 0
-22 -18 0
-20 -19 0
-21 -19 0
-22 -19 0
-21 -20 0
-22 -20 0
-22 -21 0
23 24 25 26 27 0
-24 -23 0
-25 -23 0
-26 -23 0
-27 -23 0
-25 -24 0
-26 -24 0
-27 -24 0
-26 -25 0
-27 -25 0
-27 -26 0
28 29 30 31 32 0
-29 -28 0
-30 -28 0
-31 -28 0
-32 -28 0
-30 -29 0
-31 -29 0
-32 -29 0
-31 -30 0
-32 -30 0
-32 -31 0
33 34 35 36 37 0
-34 -33 0
-35 -33 0
-36 -33 0
-37 -33 0
-35 -34 0
-36 -34 0
-37 -34 0
-36 -35 0
-37 -35 0
-37 -36 0
38 39 40 41 42 0
-39 -38 0
-40 -38 0
-41 -38 0
-42 -38 0
-40 -39 0
-41 -39 0
-42 -39 0
-41 -40 0
-42 -40 0
-42 -41 0
43 44 45 46 47 0
-44 -43 0
-45 -43 0
-46 -43 0
-47 -43 0
-45 -44 0
-46 -44 0
-47 -44 0
-46 -45 0
-47 -45 0
-47 -46 0
c gc coresp to G
-8 -14 48 0
-8 -14 -49 1 0
-8 -14 49 -1 0
-8 -15 50 0
-8 -15 -51 1 0
-8 -15 51 -1 0
-8 -16 52 0
-8 -16 -53 1 0
-8 -16 53 -1 0
-8 -17 54 0
-8 -17 -55 1 0
-8 -17 55 -1 0
-9 -13 48 0
-9 -13 -49 1 0
-9 -13 49 -1 0
-9 -15 56 0
-9 -15 -57 1 0
-9 -15 57 -1 0
-9 -16 58 0
-9 -16 -59 1 0
-9 -16 59 -1 0
-9 -17 60 0
-9 -17 -61 1 0
-9 -17 61 -1 0
-10 -13 50 0
-10 -13 -51 1 0
-10 -13 51 -1 0
-10 -14 56 0
-10 -14 -57 1 0
-10 -14 57 -1 0
-10 -16 62 0
-10 -16 -63 1 0
-10 -16 63 -1 0
-10 -17 64 0
-10 -17 -65 1 0
-10 -17 65 -1 0
-11 -13 52 0
-11 -13 -53 1 0
-11 -13 53 -1 0
-11 -14 58 0
-11 -14 -59 1 0
-11 -14 59 -1 0
-11 -15 62 0
-11 -15 -63 1 0
-11 -15 63 -1 0
-11 -17 66 0
-11 -17 -67 1 0
-11 -17 67 -1 0
-12 -13 54 0
-12 -13 -55 1 0
-12 -13 55 -1 0
-12 -14 60 0
-12 -14 -61 1 0
-12 -14 61 -1 0
-12 -15 64 0
-12 -15 -65 1 0
-12 -15 65 -1 0
-12 -16 66 0
-12 -16 -67 1 0
-12 -16 67 -1 0
-13 -19 48 0
-13 -19 -49 2 0
-13 -19 49 -2 0
-13 -20 50 0
-13 -20 -51 2 0
-13 -20 51 -2 0
-13 -21 52 0
-13 -21 -53 2 0
-13 -21 53 -2 0
-13 -22 54 0
-13 -22 -55 2 0
-13 -22 55 -2 0
-14 -18 48 0
-14 -18 -49 2 0
-14 -18 49 -2 0
-14 -20 56 0
-14 -20 -57 2 0
-14 -20 57 -2 0
-14 -21 58 0
-14 -21 -59 2 0
-14 -21 59 -2 0
-14 -22 60 0
-14 -22 -61 2 0
-14 -22 61 -2 0
-15 -18 50 0
-15 -18 -51 2 0
-15 -18 51 -2 0
-15 -19 56 0
-15 -19 -57 2 0
-15 -19 57 -2 0
-15 -21 62 0
-15 -21 -63 2 0
-15 -21 63 -2 0
-15 -22 64 0
-15 -22 -65 2 0
-15 -22 65 -2 0
-16 -18 52 0
-16 -18 -53 2 0
-16 -18 53 -2 0
-16 -19 58 0
-16 -19 -59 2 0
-16 -19 59 -2 0
-16 -20 62 0
-16 -20 -63 2 0
-16 -20 63 -2 0
-16 -22 66 0
-16 -22 -67 2 0
-16 -22 67 -2 0
-17 -18 54 0
-17 -18 -55 2 0
-17 -18 55 -2 0
-17 -19 60 0
-17 -19 -61 2 0
-17 -19 61 -2 0
-17 -20 64 0
-17 -20 -65 2 0
-17 -20 65 -2 0
-17 -21 66 0
-17 -21 -67 2 0
-17 -21 67 -2 0
-18 -24 48 0
-18 -24 -49 3 0
-18 -24 49 -3 0
-18 -25 50 0
-18 -25 -51 3 0
-18 -25 51 -3 0
-18 -26 52 0
-18 -26 -53 3 0
-18 -26 53 -3 0
-18 -27 54 0
-18 -27 -55 3 0
-18 -27 55 -3 0
-19 -23 48 0
-19 -23 -49 3 0
-19 -23 49 -3 0
-19 -25 56 0
-19 -25 -57 3 0
-19 -25 57 -3 0
-19 -26 58 0
-19 -26 -59 3 0
-19 -26 59 -3 0
-19 -27 60 0
-19 -27 -61 3 0
-19 -27 61 -3 0
-20 -23 50 0
-20 -23 -51 3 0
-20 -23 51 -3 0
-20 -24 56 0
-20 -24 -57 3 0
-20 -24 57 -3 0
-20 -26 62 0
-20 -26 -63 3 0
-20 -26 63 -3 0
-20 -27 64 0
-20 -27 -65 3 0
-20 -27 65 -3 0
-21 -23 52 0
-21 -23 -53 3 0
-21 -23 53 -3 0
-21 -24 58 0
-21 -24 -59 3 0
-21 -24 59 -3 0
-21 -25 62 0
-21 -25 -63 3 0
-21 -25 63 -3 0
-21 -27 66 0
-21 -27 -67 3 0
-21 -27 67 -3 0
-22 -23 54 0
-22 -23 -55 3 0
-22 -23 55 -3 0
-22 -24 60 0
-22 -24 -61 3 0
-22 -24 61 -3 0
-22 -25 64 0
-22 -25 -65 3 0
-22 -25 65 -3 0
-22 -26 66 0
-22 -26 -67 3 0
-22 -26 67 -3 0
-23 -29 48 0
-23 -29 -49 4 0
-23 -29 49 -4 0
-23 -30 50 0
-23 -30 -51 4 0
-23 -30 51 -4 0
-23 -31 52 0
-23 -31 -53 4 0
-23 -31 53 -4 0
-23 -32 54 0
-23 -32 -55 4 0
-23 -32 55 -4 0
-24 -28 48 0
-24 -28 -49 4 0
-24 -28 49 -4 0
-24 -30 56 0
-24 -30 -57 4 0
-24 -30 57 -4 0
-24 -31 58 0
-24 -31 -59 4 0
-24 -31 59 -4 0
-24 -32 60 0
-24 -32 -61 4 0
-24 -32 61 -4 0
-25 -28 50 0
-25 -28 -51 4 0
-25 -28 51 -4 0
-25 -29 56 0
-25 -29 -57 4 0
-25 -29 57 -4 0
-25 -31 62 0
-25 -31 -63 4 0
-25 -31 63 -4 0
-25 -32 64 0
-25 -32 -65 4 0
-25 -32 65 -4 0
-26 -28 52 0
-26 -28 -53 4 0
-26 -28 53 -4 0
-26 -29 58 0
-26 -29 -59 4 0
-26 -29 59 -4 0
-26 -30 62 0
-26 -30 -63 4 0
-26 -30 63 -4 0
-26 -32 66 0
-26 -32 -67 4 0
-26 -32 67 -4 0
-27 -28 54 0
-27 -28 -55 4 0
-27 -28 55 -4 0
-27 -29 60 0
-27 -29 -61 4 0
-27 -29 61 -4 0
-27 -30 64 0
-27 -30 -65 4 0
-27 -30 65 -4 0
-27 -31 66 0
-27 -31 -67 4 0
-27 -31 67 -4 0
-28 -34 48 0
-28 -34 -49 5 0
-28 -34 49 -5 0
-28 -35 50 0
-28 -35 -51 5 0
-28 -35 51 -5 0
-28 -36 52 0
-28 -36 -53 5 0
-28 -36 53 -5 0
-28 -37 54 0
-28 -37 -55 5 0
-28 -37 55 -5 0
-29 -33 48 0
-29 -33 -49 5 0
-29 -33 49 -5 0
-29 -35 56 0
-29 -35 -57 5 0
-29 -35 57 -5 0
-29 -36 58 0
-29 -36 -59 5 0
-29 -36 59 -5 0
-29 -37 60 0
-29 -37 -61 5 0
-29 -37 61 -5 0
-30 -33 50 0
-30 -33 -51 5 0
-30 -33 51 -5 0
-30 -34 56 0
-30 -34 -57 5 0
-30 -34 57 -5 0
-30 -36 62 0
-30 -36 -63 5 0
-30 -36 63 -5 0
-30 -37 64 0
-30 -37 -65 5 0
-30 -37 65 -5 0
-31 -33 52 0
-31 -33 -53 5 0
-31 -33 53 -5 0
-31 -34 58 0
-31 -34 -59 5 0
-31 -34 59 -5 0
-31 -35 62 0
-31 -35 -63 5 0
-31 -35 63 -5 0
-31 -37 66 0
-31 -37 -67 5 0
-31 -37 67 -5 0
-32 -33 54 0
-32 -33 -55 5 0
-32 -33 55 -5 0
-32 -34 60 0
-32 -34 -61 5 0
-32 -34 61 -5 0
-32 -35 64 0
-32 -35 -65 5 0
-32 -35 65 -5 0
-32 -36 66 0
-32 -36 -67 5 0
-32 -36 67 -5 0
-33 -39 48 0
-33 -39 -49 6 0
-33 -39 49 -6 0
-33 -40 50 0
-33 -40 -51 6 0
-33 -40 51 -6 0
-33 -41 52 0
-33 -41 -53 6 0
-33 -41 53 -6 0
-33 -42 54 0
-33 -42 -55 6 0
-33 -42 55 -6 0
-34 -38 48 0
-34 -38 -49 6 0
-34 -38 49 -6 0
-34 -40 56 0
-34 -40 -57 6 0
-34 -40 57 -6 0
-34 -41 58 0
-34 -41 -59 6 0
-34 -41 59 -6 0
-34 -42 60 0
-34 -42 -61 6 0
-34 -42 61 -6 0
-35 -38 50 0
-35 -38 -51 6 0
-35 -38 51 -6 0
-35 -39 56 0
-35 -39 -57 6 0
-35 -39 57 -6 0
-35 -41 62 0
-35 -41 -63 6 0
-35 -41 63 -6 0
-35 -42 64 0
-35 -42 -65 6 0
-35 -42 65 -6 0
-36 -38 52 0
-36 -38 -53 6 0
-36 -38 53 -6 0
-36 -39 58 0
-36 -39 -59 6 0
-36 -39 59 -6 0
-36 -40 62 0
-36 -40 -63 6 0
-36 -40 63 -6 0
-36 -42 66 0
-36 -42 -67 6 0
-36 -42 67 -6 0
-37 -38 54 0
-37 -38 -55 6 0
-37 -38 55 -6 0
-37 -39 60 0
-37 -39 -61 6 0
-37 -39 61 -6 0
-37 -40 64 0
-37 -40 -65 6 0
-37 -40 65 -6 0
-37 -41 66 0
-37 -41 -67 6 0
-37 -41 67 -6 0
-38 -44 48 0
-38 -44 -49 7 0
-38 -44 49 -7 0
-38 -45 50 0
-38 -45 -51 7 0
-38 -45 51 -7 0
-38 -46 52 0
-38 -46 -53 7 0
-38 -46 53 -7 0
-38 -47 54 0
-38 -47 -55 7 0
-38 -47 55 -7 0
-39 -43 48 0
-39 -43 -49 7 0
-39 -43 49 -7 0
-39 -45 56 0
-39 -45 -57 7 0
-39 -45 57 -7 0
-39 -46 58 0
-39 -46 -59 7 0
-39 -46 59 -7 0
-39 -47 60 0
-39 -47 -61 7 0
-39 -47 61 -7 0
-40 -43 50 0
-40 -43 -51 7 0
-40 -43 51 -7 0
-40 -44 56 0
-40 -44 -57 7 0
-40 -44 57 -7 0
-40 -46 62 0
-40 -46 -63 7 0
-40 -46 63 -7 0
-40 -47 64 0
-40 -47 -65 7 0
-40 -47 65 -7 0
-41 -43 52 0
-41 -43 -53 7 0
-41 -43 53 -7 0
-41 -44 58 0
-41 -44 -59 7 0
-41 -44 59 -7 0
-41 -45 62 0
-41 -45 -63 7 0
-41 -45 63 -7 0
-41 -47 66 0
-41 -47 -67 7 0
-41 -47 67 -7 0
-42 -43 54 0
-42 -43 -55 7 0
-42 -43 55 -7 0
-42 -44 60 0
-42 -44 -61 7 0
-42 -44 61 -7 0
-42 -45 64 0
-42 -45 -65 7 0
-42 -45 65 -7 0
-42 -46 66 0
-42 -46 -67 7 0
-42 -46 67 -7 0
c X
-69 8 0
-68 8 0
-69 14 0
-68 14 0
-69 1 0
-68 -1 0
69 -8 -14 -1 0
68 -8 -14 1 0
-71 8 0
-70 8 0
-71 15 0
-70 15 0
-71 1 0
-70 -1 0
71 -8 -15 -1 0
70 -8 -15 1 0
-73 8 0
-72 8 0
-73 16 0
-72 16 0
-73 1 0
-72 -1 0
73 -8 -16 -1 0
72 -8 -16 1 0
-75 8 0
-74 8 0
-75 17 0
-74 17 0
-75 1 0
-74 -1 0
75 -8 -17 -1 0
74 -8 -17 1 0
-77 9 0
-76 9 0
-77 13 0
-76 13 0
-77 1 0
-76 -1 0
77 -9 -13 -1 0
76 -9 -13 1 0
-79 9 0
-78 9 0
-79 15 0
-78 15 0
-79 1 0
-78 -1 0
79 -9 -15 -1 0
78 -9 -15 1 0
-81 9 0
-80 9 0
-81 16 0
-80 16 0
-81 1 0
-80 -1 0
81 -9 -16 -1 0
80 -9 -16 1 0
-83 9 0
-82 9 0
-83 17 0
-82 17 0
-83 1 0
-82 -1 0
83 -9 -17 -1 0
82 -9 -17 1 0
-85 10 0
-84 10 0
-85 13 0
-84 13 0
-85 1 0
-84 -1 0
85 -10 -13 -1 0
84 -10 -13 1 0
-87 10 0
-86 10 0
-87 14 0
-86 14 0
-87 1 0
-86 -1 0
87 -10 -14 -1 0
86 -10 -14 1 0
-89 10 0
-88 10 0
-89 16 0
-88 16 0
-89 1 0
-88 -1 0
89 -10 -16 -1 0
88 -10 -16 1 0
-91 10 0
-90 10 0
-91 17 0
-90 17 0
-91 1 0
-90 -1 0
91 -10 -17 -1 0
90 -10 -17 1 0
-93 11 0
-92 11 0
-93 13 0
-92 13 0
-93 1 0
-92 -1 0
93 -11 -13 -1 0
92 -11 -13 1 0
-95 11 0
-94 11 0
-95 14 0
-94 14 0
-95 1 0
-94 -1 0
95 -11 -14 -1 0
94 -11 -14 1 0
-97 11 0
-96 11 0
-97 15 0
-96 15 0
-97 1 0
-96 -1 0
97 -11 -15 -1 0
96 -11 -15 1 0
-99 11 0
-98 11 0
-99 17 0
-98 17 0
-99 1 0
-98 -1 0
99 -11 -17 -1 0
98 -11 -17 1 0
-101 12 0
-100 12 0
-101 13 0
-100 13 0
-101 1 0
-100 -1 0
101 -12 -13 -1 0
100 -12 -13 1 0
-103 12 0
-102 12 0
-103 14 0
-102 14 0
-103 1 0
-102 -1 0
103 -12 -14 -1 0
102 -12 -14 1 0
-105 12 0
-104 12 0
-105 15 0
-104 15 0
-105 1 0
-104 -1 0
105 -12 -15 -1 0
104 -12 -15 1 0
-107 12 0
-106 12 0
-107 16 0
-106 16 0
-107 1 0
-106 -1 0
107 -12 -16 -1 0
106 -12 -16 1 0
-109 13 0
-108 13 0
-109 19 0
-108 19 0
-109 2 0
-108 -2 0
109 -13 -19 -2 0
108 -13 -19 2 0
-111 13 0
-110 13 0
-111 20 0
-110 20 0
-111 2 0
-110 -2 0
111 -13 -20 -2 0
110 -13 -20 2 0
-113 13 0
-112 13 0
-113 21 0
-112 21 0
-113 2 0
-112 -2 0
113 -13 -21 -2 0
112 -13 -21 2 0
-115 13 0
-114 13 0
-115 22 0
-114 22 0
-115 2 0
-114 -2 0
115 -13 -22 -2 0
114 -13 -22 2 0
-117 14 0
-116 14 0
-117 18 0
-116 18 0
-117 2 0
-116 -2 0
117 -14 -18 -2 0
116 -14 -18 2 0
-119 14 0
-118 14 0
-119 20 0
-118 20 0
-119 2 0
-118 -2 0
119 -14 -20 -2 0
118 -14 -20 2 0
-121 14 0
-120 14 0
-121 21 0
-120 21 0
-121 2 0
-120 -2 0
121 -14 -21 -2 0
120 -14 -21 2 0
-123 14 0
-122 14 0
-123 22 0
-122 22 0
-123 2 0
-122 -2 0
123 -14 -22 -2 0
122 -14 -22 2 0
-125 15 0
-124 15 0
-125 18 0
-124 18 0
-125 2 0
-124 -2 0
125 -15 -18 -2 0
124 -15 -18 2 0
-127 15 0
-126 15 0
-127 19 0
-126 19 0
-127 2 0
-126 -2 0
127 -15 -19 -2 0
126 -15 -19 2 0
-129 15 0
-128 15 0
-129 21 0
-128 21 0
-129 2 0
-128 -2 0
129 -15 -21 -2 0
128 -15 -21 2 0
-131 15 0
-130 15 0
-131 22 0
-130 22 0
-131 2 0
-130 -2 0
131 -15 -22 -2 0
130 -15 -22 2 0
-133 16 0
-132 16 0
-133 18 0
-132 18 0
-133 2 0
-132 -2 0
133 -16 -18 -2 0
132 -16 -18 2 0
-135 16 0
-134 16 0
-135 19 0
-134 19 0
-135 2 0
-134 -2 0
135 -16 -19 -2 0
134 -16 -19 2 0
-137 16 0
-136 16 0
-137 20 0
-136 20 0
-137 2 0
-136 -2 0
137 -16 -20 -2 0
136 -16 -20 2 0
-139 16 0
-138 16 0
-139 22 0
-138 22 0
-139 2 0
-138 -2 0
139 -16 -22 -2 0
138 -16 -22 2 0
-141 17 0
-140 17 0
-141 18 0
-140 18 0
-141 2 0
-140 -2 0
141 -17 -18 -2 0
140 -17 -18 2 0
-143 17 0
-142 17 0
-143 19 0
-142 19 0
-143 2 0
-142 -2 0
143 -17 -19 -2 0
142 -17 -19 2 0
-145 17 0
-144 17 0
-145 20 0
-144 20 0
-145 2 0
-144 -2 0
145 -17 -20 -2 0
144 -17 -20 2 0
-147 17 0
-146 17 0
-147 21 0
-146 21 0
-147 2 0
-146 -2 0
147 -17 -21 -2 0
146 -17 -21 2 0
-149 18 0
-148 18 0
-149 24 0
-148 24 0
-149 3 0
-148 -3 0
149 -18 -24 -3 0
148 -18 -24 3 0
-151 18 0
-150 18 0
-151 25 0
-150 25 0
-151 3 0
-150 -3 0
151 -18 -25 -3 0
150 -18 -25 3 0
-153 18 0
-152 18 0
-153 26 0
-152 26 0
-153 3 0
-152 -3 0
153 -18 -26 -3 0
152 -18 -26 3 0
-155 18 0
-154 18 0
-155 27 0
-154 27 0
-155 3 0
-154 -3 0
155 -18 -27 -3 0
154 -18 -27 3 0
-157 19 0
-156 19 0
-157 23 0
-156 23 0
-157 3 0
-156 -3 0
157 -19 -23 -3 0
156 -19 -23 3 0
-159 19 0
-158 19 0
-159 25 0
-158 25 0
-159 3 0
-158 -3 0
159 -19 -25 -3 0
158 -19 -25 3 0
-161 19 0
-160 19 0
-161 26 0
-160 26 0
-161 3 0
-160 -3 0
161 -19 -26 -3 0
160 -19 -26 3 0
-163 19 0
-162 19 0
-163 27 0
-162 27 0
-163 3 0
-162 -3 0
163 -19 -27 -3 0
162 -19 -27 3 0
-165 20 0
-164 20 0
-165 23 0
-164 23 0
-165 3 0
-164 -3 0
165 -20 -23 -3 0
164 -20 -23 3 0
-167 20 0
-166 20 0
-167 24 0
-166 24 0
-167 3 0
-166 -3 0
167 -20 -24 -3 0
166 -20 -24 3 0
-169 20 0
-168 20 0
-169 26 0
-168 26 0
-169 3 0
-168 -3 0
169 -20 -26 -3 0
168 -20 -26 3 0
-171 20 0
-170 20 0
-171 27 0
-170 27 0
-171 3 0
-170 -3 0
171 -20 -27 -3 0
170 -20 -27 3 0
-173 21 0
-172 21 0
-173 23 0
-172 23 0
-173 3 0
-172 -3 0
173 -21 -23 -3 0
172 -21 -23 3 0
-175 21 0
-174 21 0
-175 24 0
-174 24 0
-175 3 0
-174 -3 0
175 -21 -24 -3 0
174 -21 -24 3 0
-177 21 0
-176 21 0
-177 25 0
-176 25 0
-177 3 0
-176 -3 0
177 -21 -25 -3 0
176 -21 -25 3 0
-179 21 0
-178 21 0
-179 27 0
-178 27 0
-179 3 0
-178 -3 0
179 -21 -27 -3 0
178 -21 -27 3 0
-181 22 0
-180 22 0
-181 23 0
-180 23 0
-181 3 0
-180 -3 0
181 -22 -23 -3 0
180 -22 -23 3 0
-183 22 0
-182 22 0
-183 24 0
-182 24 0
-183 3 0
-182 -3 0
183 -22 -24 -3 0
182 -22 -24 3 0
-185 22 0
-184 22 0
-185 25 0
-184 25 0
-185 3 0
-184 -3 0
185 -22 -25 -3 0
184 -22 -25 3 0
-187 22 0
-186 22 0
-187 26 0
-186 26 0
-187 3 0
-186 -3 0
187 -22 -26 -3 0
186 -22 -26 3 0
-189 23 0
-188 23 0
-189 29 0
-188 29 0
-189 4 0
-188 -4 0
189 -23 -29 -4 0
188 -23 -29 4 0
-191 23 0
-190 23 0
-191 30 0
-190 30 0
-191 4 0
-190 -4 0
191 -23 -30 -4 0
190 -23 -30 4 0
-193 23 0
-192 23 0
-193 31 0
-192 31 0
-193 4 0
-192 -4 0
193 -23 -31 -4 0
192 -23 -31 4 0
-195 23 0
-194 23 0
-195 32 0
-194 32 0
-195 4 0
-194 -4 0
195 -23 -32 -4 0
194 -23 -32 4 0
-197 24 0
-196 24 0
-197 28 0
-196 28 0
-197 4 0
-196 -4 0
197 -24 -28 -4 0
196 -24 -28 4 0
-199 24 0
-198 24 0
-199 30 0
-198 30 0
-199 4 0
-198 -4 0
199 -24 -30 -4 0
198 -24 -30 4 0
-201 24 0
-200 24 0
-201 31 0
-200 31 0
-201 4 0
-200 -4 0
201 -24 -31 -4 0
200 -24 -31 4 0
-203 24 0
-202 24 0
-203 32 0
-202 32 0
-203 4 0
-202 -4 0
203 -24 -32 -4 0
202 -24 -32 4 0
-205 25 0
-204 25 0
-205 28 0
-204 28 0
-205 4 0
-204 -4 0
205 -25 -28 -4 0
204 -25 -28 4 0
-207 25 0
-206 25 0
-207 29 0
-206 29 0
-207 4 0
-206 -4 0
207 -25 -29 -4 0
206 -25 -29 4 0
-209 25 0
-208 25 0
-209 31 0
-208 31 0
-209 4 0
-208 -4 0
209 -25 -31 -4 0
208 -25 -31 4 0
-211 25 0
-210 25 0
-211 32 0
-210 32 0
-211 4 0
-210 -4 0
211 -25 -32 -4 0
210 -25 -32 4 0
-213 26 0
-212 26 0
-213 28 0
-212 28 0
-213 4 0
-212 -4 0
213 -26 -28 -4 0
212 -26 -28 4 0
-215 26 0
-214 26 0
-215 29 0
-214 29 0
-215 4 0
-214 -4 0
215 -26 -29 -4 0
214 -26 -29 4 0
-217 26 0
-216 26 0
-217 30 0
-216 30 0
-217 4 0
-216 -4 0
217 -26 -30 -4 0
216 -26 -30 4 0
-219 26 0
-218 26 0
-219 32 0
-218 32 0
-219 4 0
-218 -4 0
219 -26 -32 -4 0
218 -26 -32 4 0
-221 27 0
-220 27 0
-221 28 0
-220 28 0
-221 4 0
-220 -4 0
221 -27 -28 -4 0
220 -27 -28 4 0
-223 27 0
-222 27 0
-223 29 0
-222 29 0
-223 4 0
-222 -4 0
223 -27 -29 -4 0
222 -27 -29 4 0
-225 27 0
-224 27 0
-225 30 0
-224 30 0
-225 4 0
-224 -4 0
225 -27 -30 -4 0
224 -27 -30 4 0
-227 27 0
-226 27 0
-227 31 0
-226 31 0
-227 4 0
-226 -4 0
227 -27 -31 -4 0
226 -27 -31 4 0
-229 28 0
-228 28 0
-229 34 0
-228 34 0
-229 5 0
-228 -5 0
229 -28 -34 -5 0
228 -28 -34 5 0
-231 28 0
-230 28 0
-231 35 0
-230 35 0
-231 5 0
-230 -5 0
231 -28 -35 -5 0
230 -28 -35 5 0
-233 28 0
-232 28 0
-233 36 0
-232 36 0
-233 5 0
-232 -5 0
233 -28 -36 -5 0
232 -28 -36 5 0
-235 28 0
-234 28 0
-235 37 0
-234 37 0
-235 5 0
-234 -5 0
235 -28 -37 -5 0
234 -28 -37 5 0
-237 29 0
-236 29 0
-237 33 0
-236 33 0
-237 5 0
-236 -5 0
237 -29 -33 -5 0
236 -29 -33 5 0
-239 29 0
-238 29 0
-239 35 0
-238 35 0
-239 5 0
-238 -5 0
239 -29 -35 -5 0
238 -29 -35 5 0
-241 29 0
-240 29 0
-241 36 0
-240 36 0
-241 5 0
-240 -5 0
241 -29 -36 -5 0
240 -29 -36 5 0
-243 29 0
-242 29 0
-243 37 0
-242 37 0
-243 5 0
-242 -5 0
243 -29 -37 -5 0
242 -29 -37 5 0
-245 30 0
-244 30 0
-245 33 0
-244 33 0
-245 5 0
-244 -5 0
245 -30 -33 -5 0
244 -30 -33 5 0
-247 30 0
-246 30 0
-247 34 0
-246 34 0
-247 5 0
-246 -5 0
247 -30 -34 -5 0
246 -30 -34 5 0
-249 30 0
-248 30 0
-249 36 0
-248 36 0
-249 5 0
-248 -5 0
249 -30 -36 -5 0
248 -30 -36 5 0
-251 30 0
-250 30 0
-251 37 0
-250 37 0
-251 5 0
-250 -5 0
251 -30 -37 -5 0
250 -30 -37 5 0
-253 31 0
-252 31 0
-253 33 0
-252 33 0
-253 5 0
-252 -5 0
253 -31 -33 -5 0
252 -31 -33 5 0
-255 31 0
-254 31 0
-255 34 0
-254 34 0
-255 5 0
-254 -5 0
255 -31 -34 -5 0
254 -31 -34 5 0
-257 31 0
-256 31 0
-257 35 0
-256 35 0
-257 5 0
-256 -5 0
257 -31 -35 -5 0
256 -31 -35 5 0
-259 31 0
-258 31 0
-259 37 0
-258 37 0
-259 5 0
-258 -5 0
259 -31 -37 -5 0
258 -31 -37 5 0
-261 32 0
-260 32 0
-261 33 0
-260 33 0
-261 5 0
-260 -5 0
261 -32 -33 -5 0
260 -32 -33 5 0
-263 32 0
-262 32 0
-263 34 0
-262 34 0
-263 5 0
-262 -5 0
263 -32 -34 -5 0
262 -32 -34 5 0
-265 32 0
-264 32 0
-265 35 0
-264 35 0
-265 5 0
-264 -5 0
265 -32 -35 -5 0
264 -32 -35 5 0
-267 32 0
-266 32 0
-267 36 0
-266 36 0
-267 5 0
-266 -5 0
267 -32 -36 -5 0
266 -32 -36 5 0
-269 33 0
-268 33 0
-269 39 0
-268 39 0
-269 6 0
-268 -6 0
269 -33 -39 -6 0
268 -33 -39 6 0
-271 33 0
-270 33 0
-271 40 0
-270 40 0
-271 6 0
-270 -6 0
271 -33 -40 -6 0
270 -33 -40 6 0
-273 33 0
-272 33 0
-273 41 0
-272 41 0
-273 6 0
-272 -6 0
273 -33 -41 -6 0
272 -33 -41 6 0
-275 33 0
-274 33 0
-275 42 0
-274 42 0
-275 6 0
-274 -6 0
275 -33 -42 -6 0
274 -33 -42 6 0
-277 34 0
-276 34 0
-277 38 0
-276 38 0
-277 6 0
-276 -6 0
277 -34 -38 -6 0
276 -34 -38 6 0
-279 34 0
-278 34 0
-279 40 0
-278 40 0
-279 6 0
-278 -6 0
279 -34 -40 -6 0
278 -34 -40 6 0
-281 34 0
-280 34 0
-281 41 0
-280 41 0
-281 6 0
-280 -6 0
281 -34 -41 -6 0
280 -34 -41 6 0
-283 34 0
-282 34 0
-283 42 0
-282 42 0
-283 6 0
-282 -6 0
283 -34 -42 -6 0
282 -34 -42 6 0
-285 35 0
-284 35 0
-285 38 0
-284 38 0
-285 6 0
-284 -6 0
285 -35 -38 -6 0
284 -35 -38 6 0
-287 35 0
-286 35 0
-287 39 0
-286 39 0
-287 6 0
-286 -6 0
287 -35 -39 -6 0
286 -35 -39 6 0
-289 35 0
-288 35 0
-289 41 0
-288 41 0
-289 6 0
-288 -6 0
289 -35 -41 -6 0
288 -35 -41 6 0
-291 35 0
-290 35 0
-291 42 0
-290 42 0
-291 6 0
-290 -6 0
291 -35 -42 -6 0
290 -35 -42 6 0
-293 36 0
-292 36 0
-293 38 0
-292 38 0
-293 6 0
-292 -6 0
293 -36 -38 -6 0
292 -36 -38 6 0
-295 36 0
-294 36 0
-295 39 0
-294 39 0
-295 6 0
-294 -6 0
295 -36 -39 -6 0
294 -36 -39 6 0
-297 36 0
-296 36 0
-297 40 0
-296 40 0
-297 6 0
-296 -6 0
297 -36 -40 -6 0
296 -36 -40 6 0
-299 36 0
-298 36 0
-299 42 0
-298 42 0
-299 6 0
-298 -6 0
299 -36 -42 -6 0
298 -36 -42 6 0
-301 37 0
-300 37 0
-301 38 0
-300 38 0
-301 6 0
-300 -6 0
301 -37 -38 -6 0
300 -37 -38 6 0
-303 37 0
-302 37 0
-303 39 0
-302 39 0
-303 6 0
-302 -6 0
303 -37 -39 -6 0
302 -37 -39 6 0
-305 37 0
-304 37 0
-305 40 0
-304 40 0
-305 6 0
-304 -6 0
305 -37 -40 -6 0
304 -37 -40 6 0
-307 37 0
-306 37 0
-307 41 0
-306 41 0
-307 6 0
-306 -6 0
307 -37 -41 -6 0
306 -37 -41 6 0
-309 38 0
-308 38 0
-309 44 0
-308 44 0
-309 7 0
-308 -7 0
309 -38 -44 -7 0
308 -38 -44 7 0
-311 38 0
-310 38 0
-311 45 0
-310 45 0
-311 7 0
-310 -7 0
311 -38 -45 -7 0
310 -38 -45 7 0
-313 38 0
-312 38 0
-313 46 0
-312 46 0
-313 7 0
-312 -7 0
313 -38 -46 -7 0
312 -38 -46 7 0
-315 38 0
-314 38 0
-315 47 0
-314 47 0
-315 7 0
-314 -7 0
315 -38 -47 -7 0
314 -38 -47 7 0
-317 39 0
-316 39 0
-317 43 0
-316 43 0
-317 7 0
-316 -7 0
317 -39 -43 -7 0
316 -39 -43 7 0
-319 39 0
-318 39 0
-319 45 0
-318 45 0
-319 7 0
-318 -7 0
319 -39 -45 -7 0
318 -39 -45 7 0
-321 39 0
-320 39 0
-321 46 0
-320 46 0
-321 7 0
-320 -7 0
321 -39 -46 -7 0
320 -39 -46 7 0
-323 39 0
-322 39 0
-323 47 0
-322 47 0
-323 7 0
-322 -7 0
323 -39 -47 -7 0
322 -39 -47 7 0
-325 40 0
-324 40 0
-325 43 0
-324 43 0
-325 7 0
-324 -7 0
325 -40 -43 -7 0
324 -40 -43 7 0
-327 40 0
-326 40 0
-327 44 0
-326 44 0
-327 7 0
-326 -7 0
327 -40 -44 -7 0
326 -40 -44 7 0
-329 40 0
-328 40 0
-329 46 0
-328 46 0
-329 7 0
-328 -7 0
329 -40 -46 -7 0
328 -40 -46 7 0
-331 40 0
-330 40 0
-331 47 0
-330 47 0
-331 7 0
-330 -7 0
331 -40 -47 -7 0
330 -40 -47 7 0
-333 41 0
-332 41 0
-333 43 0
-332 43 0
-333 7 0
-332 -7 0
333 -41 -43 -7 0
332 -41 -43 7 0
-335 41 0
-334 41 0
-335 44 0
-334 44 0
-335 7 0
-334 -7 0
335 -41 -44 -7 0
334 -41 -44 7 0
-337 41 0
-336 41 0
-337 45 0
-336 45 0
-337 7 0
-336 -7 0
337 -41 -45 -7 0
336 -41 -45 7 0
-339 41 0
-338 41 0
-339 47 0
-338 47 0
-339 7 0
-338 -7 0
339 -41 -47 -7 0
338 -41 -47 7 0
-341 42 0
-340 42 0
-341 43 0
-340 43 0
-341 7 0
-340 -7 0
341 -42 -43 -7 0
340 -42 -43 7 0
-343 42 0
-342 42 0
-343 44 0
-342 44 0
-343 7 0
-342 -7 0
343 -42 -44 -7 0
342 -42 -44 7 0
-345 42 0
-344 42 0
-345 45 0
-344 45 0
-345 7 0
-344 -7 0
345 -42 -45 -7 0
344 -42 -45 7 0
-347 42 0
-346 42 0
-347 46 0
-346 46 0
-347 7 0
-346 -7 0
347 -42 -46 -7 0
346 -42 -46 7 0
c x suite
-48 -49 69 77 109 117 149 157 189 197 229 237 269 277 309 317 0
-50 -51 71 85 111 125 151 165 191 205 231 245 271 285 311 325 0
-52 -53 73 93 113 133 153 173 193 213 233 253 273 293 313 333 0
-54 -55 75 101 115 141 155 181 195 221 235 261 275 301 315 341 0
-56 -57 79 87 119 127 159 167 199 207 239 247 279 287 319 327 0
-58 -59 81 95 121 135 161 175 201 215 241 255 281 295 321 335 0
-60 -61 83 103 123 143 163 183 203 223 243 263 283 303 323 343 0
-62 -63 89 97 129 137 169 177 209 217 249 257 289 297 329 337 0
-64 -65 91 105 131 145 171 185 211 225 251 265 291 305 331 345 0
-66 -67 99 107 139 147 179 187 219 227 259 267 299 307 339 347 0
-48 49 68 76 108 116 148 156 188 196 228 236 268 276 308 316 0
-50 51 70 84 110 124 150 164 190 204 230 244 270 284 310 324 0
-52 53 72 92 112 132 152 172 192 212 232 252 272 292 312 332 0
-54 55 74 100 114 140 154 180 194 220 234 260 274 300 314 340 0
-56 57 78 86 118 126 158 166 198 206 238 246 278 286 318 326 0
-58 59 80 94 120 134 160 174 200 214 240 254 280 294 320 334 0
-60 61 82 102 122 142 162 182 202 222 242 262 282 302 322 342 0
-62 63 88 96 128 136 168 176 208 216 248 256 288 296 328 336 0
-64 65 90 104 130 144 170 184 210 224 250 264 290 304 330 344 0
-66 67 98 106 138 146 178 186 218 226 258 266 298 306 338 346 0
c proper colo
-8 -13 0
-9 -14 0
-10 -15 0
-11 -16 0
-12 -17 0
-13 -18 0
-14 -19 0
-15 -20 0
-16 -21 0
-17 -22 0
-18 -23 0
-19 -24 0
-20 -25 0
-21 -26 0
-22 -27 0
-23 -28 0
-24 -29 0
-25 -30 0
-26 -31 0
-27 -32 0
-28 -33 0
-29 -34 0
-30 -35 0
-31 -36 0
-32 -37 0
-33 -38 0
-34 -39 0
-35 -40 0
-36 -41 0
-37 -42 0
-38 -43 0
-39 -44 0
-40 -45 0
-41 -46 0
-42 -47 0
48 348 349 350 0
50 351 352 353 0
52 354 355 356 0
54 357 358 359 0
56 360 361 362 0
58 363 364 365 0
60 366 367 368 0
62 369 370 371 0
64 372 373 374 0
66 375 376 377 0
-348 50 0
-348 56 0
-348 51 57 0
-348 -51 -57 0
348 -50 -56 51 -57 0
348 -50 -56 -51 57 0
-349 52 0
-349 58 0
-349 53 59 0
-349 -53 -59 0
349 -52 -58 53 -59 0
349 -52 -58 -53 59 0
-350 54 0
-350 60 0
-350 55 61 0
-350 -55 -61 0
350 -54 -60 55 -61 0
350 -54 -60 -55 61 0
-351 48 0
-351 56 0
-351 49 57 0
-351 -49 -57 0
351 -48 -56 49 -57 0
351 -48 -56 -49 57 0
-352 52 0
-352 62 0
-352 53 63 0
-352 -53 -63 0
352 -52 -62 53 -63 0
352 -52 -62 -53 63 0
-353 54 0
-353 64 0
-353 55 65 0
-353 -55 -65 0
353 -54 -64 55 -65 0
353 -54 -64 -55 65 0
-354 48 0
-354 58 0
-354 49 59 0
-354 -49 -59 0
354 -48 -58 49 -59 0
354 -48 -58 -49 59 0
-355 50 0
-355 62 0
-355 51 63 0
-355 -51 -63 0
355 -50 -62 51 -63 0
355 -50 -62 -51 63 0
-356 54 0
-356 66 0
-356 55 67 0
-356 -55 -67 0
356 -54 -66 55 -67 0
356 -54 -66 -55 67 0
-357 48 0
-357 60 0
-357 49 61 0
-357 -49 -61 0
357 -48 -60 49 -61 0
357 -48 -60 -49 61 0
-358 50 0
-358 64 0
-358 51 65 0
-358 -51 -65 0
358 -50 -64 51 -65 0
358 -50 -64 -51 65 0
-359 52 0
-359 66 0
-359 53 67 0
-359 -53 -67 0
359 -52 -66 53 -67 0
359 -52 -66 -53 67 0
-360 48 0
-360 50 0
-360 49 51 0
-360 -49 -51 0
360 -48 -50 49 -51 0
360 -48 -50 -49 51 0
-361 58 0
-361 62 0
-361 59 63 0
-361 -59 -63 0
361 -58 -62 59 -63 0
361 -58 -62 -59 63 0
-362 60 0
-362 64 0
-362 61 65 0
-362 -61 -65 0
362 -60 -64 61 -65 0
362 -60 -64 -61 65 0
-363 48 0
-363 52 0
-363 49 53 0
-363 -49 -53 0
363 -48 -52 49 -53 0
363 -48 -52 -49 53 0
-364 56 0
-364 62 0
-364 57 63 0
-364 -57 -63 0
364 -56 -62 57 -63 0
364 -56 -62 -57 63 0
-365 60 0
-365 66 0
-365 61 67 0
-365 -61 -67 0
365 -60 -66 61 -67 0
365 -60 -66 -61 67 0
-366 48 0
-366 54 0
-366 49 55 0
-366 -49 -55 0
366 -48 -54 49 -55 0
366 -48 -54 -49 55 0
-367 56 0
-367 64 0
-367 57 65 0
-367 -57 -65 0
367 -56 -64 57 -65 0
367 -56 -64 -57 65 0
-368 58 0
-368 66 0
-368 59 67 0
-368 -59 -67 0
368 -58 -66 59 -67 0
368 -58 -66 -59 67 0
-369 50 0
-369 52 0
-369 51 53 0
-369 -51 -53 0
369 -50 -52 51 -53 0
369 -50 -52 -51 53 0
-370 56 0
-370 58 0
-370 57 59 0
-370 -57 -59 0
370 -56 -58 57 -59 0
370 -56 -58 -57 59 0
-371 64 0
-371 66 0
-371 65 67 0
-371 -65 -67 0
371 -64 -66 65 -67 0
371 -64 -66 -65 67 0
-372 50 0
-372 54 0
-372 51 55 0
-372 -51 -55 0
372 -50 -54 51 -55 0
372 -50 -54 -51 55 0
-373 56 0
-373 60 0
-373 57 61 0
-373 -57 -61 0
373 -56 -60 57 -61 0
373 -56 -60 -57 61 0
-374 62 0
-374 66 0
-374 63 67 0
-374 -63 -67 0
374 -62 -66 63 -67 0
374 -62 -66 -63 67 0
-375 52 0
-375 54 0
-375 53 55 0
-375 -53 -55 0
375 -52 -54 53 -55 0
375 -52 -54 -53 55 0
-376 58 0
-376 60 0
-376 59 61 0
-376 -59 -61 0
376 -58 -60 59 -61 0
376 -58 -60 -59 61 0
-377 62 0
-377 64 0
-377 63 65 0
-377 -63 -65 0
377 -62 -64 63 -65 0
377 -62 -64 -63 65 0
c K couleurs
8 13 18 23 28 33 38 43 0
9 14 19 24 29 34 39 44 0
10 15 20 25 30 35 40 45 0
11 16 21 26 31 36 41 46 0
12 17 22 27 32 37 42 47 0
1 0
-9 0
-10 0
-11 0
-12 0
-15 0
-16 0
-17 0
-21 0
-22 0
-27 0
